1  13
2  14
3  6
4  5
5  18
6  18
7  18
8  18
9  17
10  10
11  9
12  2
13  1
14  18
15  18
16  5
17  17
18  17
19  12
20  16
21  15
22  8
23  4
24  7
25  13
26  6
27  10
28  9
29  14
30  2
31  5
32  1
33  3
34  1
35  2
36  9
37  14
38  7
39  1
40  18
41  13
42  5
43  8
44  2
45  1
46  12
47  18
48  7
49  14
50  8
51  5
52  1
53  10
54  17
55  3
56  6
57  13
58  11
59  4
60  18
61  14
62  1
63  3
64  9
65  18
66  13
67  7
68  15
69  10
70  16
71  11
72  3
73  2
74  7
75  18
76  9
77  15
78  8
79  11
80  17
81  5